(set-option :print-success false)
(set-option :produce-models true)
(set-logic AUFNIRA)
(declare-fun x0 () Int)
(assert (< (- x0 4) 0))
(assert (< (- (+ x0 1) 4) 0))
(assert (< (- (+ (+ x0 1) 1) 4) 0))
(assert (< (- (+ (+ (+ x0 1) 1) 1) 4) 0))
(assert (< (- (+ (+ (+ (+ x0 1) 1) 1) 1) 4) 0))
(assert (< (- (+ (+ (+ (+ (+ x0 1) 1) 1) 1) 1) 4) 0))
(assert (< (- (+ (+ (+ (+ (+ (+ x0 1) 1) 1) 1) 1) 1) 4) 0))
(assert (< (- (+ (+ (+ (+ (+ (+ (+ x0 1) 1) 1) 1) 1) 1) 1) 4) 0))
(assert (< (- (+ (+ (+ (+ (+ (+ (+ (+ x0 1) 1) 1) 1) 1) 1) 1) 1) 4) 0))
(assert (< (- (+ (+ (+ (+ (+ (+ (+ (+ (+ x0 1) 1) 1) 1) 1) 1) 1) 1) 1) 4) 0))
(check-sat)
(get-value (x0))
(exit)
